NAME : rnd31_20.tsp
TYPE : TSP
DIMENSION : 20
EDGE_WEIGHT_TYPE : EUC_2D
NODE_COORD_SECTION
1 261 997
2 86 481
3 193 20
4 520 919
5 167 981
6 539 33
7 592 801
8 867 680
9 138 48
10 981 403
11 730 503
12 576 997
13 524 915
14 503 264
15 542 943
16 27 620
17 548 395
18 292 100
19 253 433
20 37 842
